%nprocshared=4

# input

comment

0 1
1 0.022978 -3.017484 0.236107
6 0.094693 -1.938516 0.139019
6 0.327896 0.905855 -0.135143
6 1.321572 -1.300474 0.096117
6 -1.044453 -1.135466 0.030514
6 -0.927401 0.279689 -0.096799
6 1.482864 0.091023 -0.044566
8 2.535113 -1.927709 0.175157
6 2.925591 0.306057 -0.050117
6 3.471303 -0.930310 0.083347
1 4.499961 -1.258666 0.128446
6 -2.372390 -1.757374 0.015147
1 -2.432015 -2.809222 0.288541
6 -3.466725 -1.088259 -0.375889
1 -4.431786 -1.587737 -0.424700
6 -3.366630 0.350100 -0.811461
1 -3.207936 0.382963 -1.902106
1 -4.311642 0.877808 -0.629253
6 -2.219857 1.096088 -0.096734
1 -2.052815 2.030724 -0.642850
6 3.721045 1.573269 -0.170772
1 3.512384 2.103075 -1.108029
1 4.793686 1.352427 -0.150959
1 3.515102 2.269090 0.651665
6 0.438181 2.410516 -0.274226
1 0.032901 2.756658 -1.233955
1 1.472506 2.748871 -0.218762
1 -0.117935 2.933538 0.512180
6 -2.620108 1.465285 1.349197
1 -3.513861 2.101890 1.352985
1 -1.816057 2.006635 1.859239
1 -2.839867 0.566202 1.934387




