%nprocshared=4

# input

comment

0 1
6 3.966372 -1.275797 -0.641270
1 4.537804 -2.141473 -0.965517
6 2.954183 -1.379562 0.231129
1 2.690166 -2.346841 0.653975
6 2.157268 -0.209277 0.750051
6 4.368927 0.026258 -1.213094
6 3.607502 1.196741 -0.739340
6 2.598958 1.110843 0.147875
6 1.810225 2.310508 0.591876
1 2.201391 3.218201 0.119974
1 1.902750 2.452708 1.676782
6 0.615538 -0.438014 0.541026
6 -0.311145 0.798606 0.697691
1 -0.537202 0.891229 1.769650
6 0.335756 2.119400 0.210014
1 0.271829 2.154872 -0.885865
1 -0.257326 2.961951 0.583625
1 3.914374 2.156115 -1.149881
6 2.404246 -0.167405 2.294573
1 2.141807 -1.132524 2.733197
1 1.796366 0.599382 2.783340
1 3.458516 0.043845 2.496973
8 0.207773 -1.613994 1.267725
8 5.283534 0.126740 -2.027356
6 -1.613182 0.603292 -0.107221
1 -1.307886 0.717711 -1.161980
6 -2.269954 -0.791725 -0.053075
6 -1.309701 -1.797525 -0.702661
1 -1.289194 -1.649173 -1.790805
1 -1.640497 -2.830417 -0.537898
6 0.103818 -1.649384 -0.165818
1 0.837664 -2.298111 -0.645459
6 -2.783434 1.587151 0.094467
1 -2.541119 2.608916 -0.214272
1 -3.083279 1.629671 1.149634
6 -3.907290 0.968198 -0.770220
1 -3.793129 1.331058 -1.803630
6 -3.564525 -0.535829 -0.838026
8 -4.227640 -1.376018 -1.407907
6 -2.751209 -1.247723 1.350837
1 -3.284507 -2.199360 1.250082
1 -3.446740 -0.529493 1.799226
1 -1.909647 -1.390835 2.028396
6 -5.349489 1.232636 -0.328491
1 -6.045357 0.670836 -0.959258
1 -5.595326 2.297658 -0.402857
1 -5.507991 0.921906 0.710929




