%nprocshared=4

# input

comment

0 1
6 -1.054486 0.674113 1.279785
1 -0.960990 1.342023 2.130097
6 -1.015067 -0.665368 1.295003
1 -0.891680 -1.306692 2.161919
6 -1.096792 1.117094 -0.174038
1 -1.453879 2.133424 -0.359960
6 -1.025331 -1.142369 -0.151134
1 -1.324897 -2.181767 -0.311563
6 -1.916926 -0.045699 -0.786864
1 -2.950747 -0.074589 -0.427893
1 -1.907327 -0.055762 -1.884221
6 0.314048 0.802475 -0.815569
1 0.319747 1.204678 -1.838179
6 0.360693 -0.770836 -0.794314
1 0.391466 -1.173200 -1.812200
6 1.645909 -1.159765 -0.014092
1 2.339221 -1.743671 -0.635805
1 1.429282 -1.782627 0.865562
6 1.544067 1.214079 -0.052328
1 1.806896 2.255258 0.120059
6 2.250019 0.167498 0.384417
1 3.166104 0.235588 0.966987




