%nprocshared=4

# input

comment

0 1
1 -2.607259 0.870402 0.000000
6 -2.405313 -0.205567 0.000000
1 -2.891626 -0.643477 0.881475
1 -2.891626 -0.643477 -0.881475
6 -0.931937 -0.496868 0.000000
1 -0.626960 -1.541808 0.000000
6 0.000000 0.452460 0.000000
1 -0.215583 1.515590 0.000000
17 1.720974 0.114272 0.000000




