%nprocshared=4

# input

comment

0 1
1 -2.000450 -0.677389 1.225446
6 -1.820006 -0.721605 0.144391
1 -1.192108 -1.595137 -0.056408
1 -2.784916 -0.876921 -0.349971
6 -1.155338 0.562060 -0.357689
1 -1.814447 1.421564 -0.165265
1 -1.010858 0.517041 -1.443795
6 0.175900 0.886517 0.308889
1 0.089261 0.905767 1.398038
1 0.573830 1.843619 -0.033475
17 1.466844 -0.347081 -0.067536




