%nprocshared=4

# input

comment

0 1
8 -0.642577 -0.203793 1.297612
6 -1.308100 0.658115 0.363836
6 0.157113 -1.000743 0.405461
6 -0.282680 1.651139 -0.141020
1 -0.616854 2.656746 -0.375706
6 1.354538 -0.111880 0.000884
6 1.008419 1.310979 -0.297353
1 1.788728 1.972929 -0.643813
8 2.512522 -0.502572 -0.112590
1 0.498034 -1.911554 0.904414
8 -0.643701 -1.295381 -0.747842
6 -1.730319 -0.349532 -0.693377
1 -1.907009 0.082030 -1.682730
1 -2.620712 -0.902847 -0.376480
1 -2.145969 1.168191 0.846291




