%nprocshared=4

# input

comment

0 1
1 0.058485 -2.996625 0.235457
6 0.104384 -1.918351 0.144195
6 0.346036 0.934608 -0.109651
6 1.330668 -1.266398 0.101260
6 -1.036599 -1.122430 0.035252
6 -0.932220 0.286191 -0.077989
6 1.503944 0.108469 -0.030000
8 2.528538 -1.903355 0.174072
6 2.931906 0.301598 -0.051667
6 3.486701 -0.955581 0.081466
1 4.504156 -1.319669 0.121122
6 -2.349712 -1.784450 0.030633
1 -2.407255 -2.827990 0.323676
6 -3.439892 -1.126392 -0.385050
1 -4.397964 -1.634546 -0.436760
6 -3.372386 0.309679 -0.810275
1 -3.227570 0.334411 -1.898054
1 -4.334373 0.796313 -0.610131
6 -2.236719 1.088731 -0.111324
1 -2.094600 2.007719 -0.691604
6 3.702510 1.561021 -0.188184
1 3.414777 2.094150 -1.099586
1 4.778167 1.363173 -0.248588
1 3.533937 2.211159 0.675809
6 0.423326 2.432007 -0.264107
1 0.126082 2.717464 -1.278136
1 1.427410 2.817640 -0.089615
1 -0.222739 2.937390 0.458735
6 -2.648252 1.479716 1.316579
1 -3.557564 2.090229 1.301112
1 -1.867306 2.063336 1.814525
1 -2.844112 0.602181 1.942637




