%nprocshared=4

# input

comment

0 1
1 1.739596 -1.632104 -1.595276
6 1.718153 -1.769589 -0.508478
1 0.984881 -2.559278 -0.304857
6 3.102241 -2.257922 -0.105139
1 3.157543 -2.566438 0.941528
1 3.352654 -3.139432 -0.707515
6 3.889257 0.224899 0.163829
6 2.398183 0.639053 -0.115945
6 1.294630 -0.446203 0.185896
6 4.148802 -1.199893 -0.361741
8 5.213398 -1.516147 -0.897983
6 4.831807 1.181544 -0.615392
1 4.602102 1.178859 -1.687200
1 5.882329 0.883030 -0.513208
1 4.763535 2.211864 -0.253905
6 4.323819 0.281348 1.635930
1 3.812548 -0.446893 2.264183
1 4.171452 1.274789 2.068894
1 5.392742 0.050970 1.730282
6 2.010311 2.014889 0.474704
1 2.031826 1.983925 1.569212
1 2.733038 2.780944 0.176974
6 -0.121377 0.070436 -0.373112
6 0.627989 2.487862 0.017849
1 0.663135 2.740165 -1.048671
1 0.378992 3.416883 0.545286
6 -0.450259 1.438567 0.283240
1 2.373194 0.776790 -1.205919
6 1.140311 -0.745951 1.707608
1 0.269519 -1.381218 1.903287
1 1.024376 0.157570 2.310216
1 1.984230 -1.290279 2.127995
6 -0.156056 0.139272 -1.924465
1 -1.111843 0.520964 -2.297768
1 -0.077279 -0.859519 -2.366317
1 0.625295 0.772738 -2.348272
1 -0.509025 1.296628 1.371292
8 -1.125409 -0.903263 0.003340
6 -2.449407 -0.500561 0.031236
6 -2.817212 0.791193 -0.049517
6 -1.844654 1.925465 -0.120096
1 -2.146914 2.729560 0.562533
1 -1.843328 2.350180 -1.130736
8 -3.374703 -1.528933 0.139233
6 -4.727426 -1.242961 0.154866
6 -5.603464 -2.448621 0.272905
1 -5.430610 -3.125542 -0.569888
1 -6.666268 -2.185466 0.281280
1 -5.382420 -2.987232 1.199962
6 -5.206468 0.003393 0.070252
1 -6.260810 0.245014 0.079548
6 -4.259030 1.123000 -0.042178
8 -4.665208 2.266745 -0.219145




