%nprocshared=4

# input

comment

0 1
 1   1.030221357   0.000000000   1.352693145
 6  -0.055941275   0.000000000   1.216734709
 1  -0.461971340  -0.887168326   1.712180723
 1  -0.461971340   0.887168326   1.712180723
 6  -0.444378621   0.000000000  -0.224740503
 1  -1.510796959   0.000000000  -0.438469082
 6   0.435845464   0.000000000  -1.231858239
 1   1.508451925   0.000000000  -1.074263879
35  -0.039459211   0.000000000  -3.024457596



