%nprocshared=4

# input

comment

0 1
14 0.000000 0.000000 0.000000
6 1.082679 1.082679 1.082679
1 0.470098 1.723641 1.723641
1 1.723641 1.723641 0.470098
1 1.723641 0.470098 1.723641
6 -1.082679 -1.082679 1.082679
1 -1.723641 -0.470098 1.723641
1 -0.470098 -1.723641 1.723641
1 -1.723641 -1.723641 0.470098
6 -1.082679 1.082679 -1.082679
1 -1.723641 1.723641 -0.470098
1 -1.723641 0.470098 -1.723641
1 -0.470098 1.723641 -1.723641
6 1.082679 -1.082679 -1.082679
1 1.723641 -1.723641 -0.470098
1 1.723641 -0.470098 -1.723641
1 0.470098 -1.723641 -1.723641




