%nprocshared=4

# input

comment

0 1
1 -2.200212 3.103984 0.000335
6 -1.516976 2.259334 0.000235
6 0.185095 0.052112 -0.000107
6 -2.066935 0.936998 0.000106
6 -0.157923 2.458605 0.000196
6 0.701811 1.333199 0.000032
6 -1.205237 -0.207134 -0.000072
1 0.271892 3.455902 0.000229
6 -3.454462 0.674250 0.000146
1 -4.154891 1.506085 0.000297
6 -3.926872 -0.628625 -0.000009
6 -5.405866 -0.930291 0.000041
1 -5.899609 -0.505805 -0.882653
1 -5.899483 -0.506116 0.882954
1 -5.559321 -2.011317 -0.000138
7 -3.094180 -1.709119 -0.000197
6 -1.792155 -1.493693 -0.000220
1 -1.149544 -2.372612 -0.000364
6 2.163703 1.208166 -0.000133
8 3.005836 2.099698 -0.000243
6 2.390788 -0.276399 -0.000226
6 3.523092 -1.004417 0.000098
6 3.496170 -2.508156 0.000464
1 2.481636 -2.908767 0.000762
1 4.027956 -2.894577 0.880297
1 4.027621 -2.895103 -0.879345
6 4.875458 -0.347404 -0.000014
1 5.448705 -0.671693 0.879445
1 4.803368 0.739909 0.000657
1 5.447893 -0.670625 -0.880405
8 1.138550 -0.920286 -0.000247




