%nprocshared=4

# input

comment

0 1
1 1.635197 -1.615536 -1.586607
6 1.630285 -1.753424 -0.499939
1 0.875021 -2.517690 -0.285014
6 3.023532 -2.264467 -0.099471
1 3.049176 -2.537299 0.963831
1 3.289715 -3.164321 -0.661840
6 3.856984 0.212749 0.153936
6 2.363458 0.644882 -0.110684
6 1.248680 -0.423586 0.197806
6 4.104541 -1.227303 -0.356949
8 5.138748 -1.532428 -0.922636
6 4.809304 1.155862 -0.611435
1 4.543595 1.216362 -1.672906
1 5.832459 0.778815 -0.554156
1 4.790590 2.166879 -0.193733
6 4.279634 0.233637 1.647626
1 3.713050 -0.459589 2.272763
1 4.157690 1.237612 2.066792
1 5.339147 -0.032486 1.729241
6 2.012565 2.021863 0.494607
1 2.021162 1.970175 1.590008
1 2.776252 2.756317 0.219302
6 -0.111147 0.138291 -0.389580
6 0.640534 2.526480 0.023538
1 0.682392 2.777636 -1.045155
1 0.386129 3.458007 0.544735
6 -0.467046 1.494860 0.271204
1 2.333392 0.777972 -1.201202
6 1.057357 -0.703613 1.711828
1 0.118589 -1.238038 1.874928
1 1.038591 0.202825 2.320847
1 1.856824 -1.331556 2.107239
6 -0.171128 0.204259 -1.926483
1 -1.128468 0.622617 -2.246470
1 -0.094308 -0.794850 -2.359105
1 0.618974 0.826756 -2.351770
1 -0.514979 1.307897 1.350825
8 -1.136679 -0.851668 -0.011483
6 -2.408813 -0.433951 -0.000709
6 -2.850648 0.847047 -0.079485
6 -1.861966 1.978317 -0.147059
1 -2.199614 2.781727 0.518079
1 -1.849071 2.422343 -1.152732
8 -3.220329 -1.512937 0.113045
6 -4.581150 -1.321714 0.146810
6 -5.304245 -2.622770 0.281105
1 -5.064753 -3.287909 -0.557004
1 -6.383550 -2.457091 0.302253
1 -5.007524 -3.137890 1.202450
6 -5.120586 -0.090419 0.061856
1 -6.197242 0.034447 0.088330
6 -4.287517 1.113678 -0.057174
8 -4.756015 2.253507 -0.122928




