%nprocshared=4

# input

comment

0 1
1 -1.180083 3.134513 0.000000
6 -1.935937 2.342621 0.000000
1 -2.575385 2.480986 0.881612
1 -2.575385 2.480986 -0.881612
6 -1.313367 0.974884 0.000000
1 -1.987955 0.120778 0.000000
6 0.000000 0.766996 0.000000
1 0.745185 1.554489 0.000000
35 0.773413 -0.979393 0.000000




