%nprocshared=4

# input

comment

0 1
14 0.000000 0.000000 0.000000
6 1.094981 1.094981 1.094981
1 1.742002 0.490616 1.742002
1 0.490616 1.742002 1.742002
1 1.742002 1.742002 0.490616
6 1.094981 -1.094981 -1.094981
1 1.742002 -1.742002 -0.490616
1 1.742002 -0.490616 -1.742002
1 0.490616 -1.742002 -1.742002
6 -1.094981 -1.094981 1.094981
1 -0.490616 -1.742002 1.742002
1 -1.742002 -1.742002 0.490616
1 -1.742002 -0.490616 1.742002
6 -1.094981 1.094981 -1.094981
1 -0.490616 1.742002 -1.742002
1 -1.742002 1.742002 -0.490616
1 -1.742002 0.490616 -1.742002




