%nprocshared=4

# input

comment

0 1
8 -0.656903 -0.289910 1.291614
6 -1.329118 0.602929 0.386878
6 0.208741 -0.979003 0.419089
6 -0.367034 1.660217 -0.101095
1 -0.751189 2.651697 -0.330933
6 1.365588 -0.049747 0.003098
6 0.924494 1.337581 -0.280367
1 1.674756 2.046061 -0.619862
8 2.511183 -0.443097 -0.119237
1 0.565855 -1.899674 0.884416
8 -0.556591 -1.270513 -0.758385
6 -1.683816 -0.391125 -0.747119
1 -1.792295 0.076161 -1.730028
1 -2.593589 -0.950305 -0.497617
1 -2.198181 1.019092 0.899181




