%nprocshared=4

# input

comment

0 1
1 2.733348 -2.895897 -0.425861
6 2.988308 -1.844583 -0.315753
6 3.671011 0.881357 -0.004760
6 2.012753 -0.912927 0.023228
6 4.306723 -1.417248 -0.511710
6 4.636141 -0.069066 -0.353171
6 2.358993 0.438613 0.172233
1 5.074469 -2.137115 -0.781001
1 5.662822 0.254948 -0.501893
1 3.914610 1.928034 0.113936
6 0.553155 -1.128279 0.365206
6 0.001038 0.335985 0.415159
1 -0.600916 0.478842 1.318514
7 1.208782 1.197824 0.488544
6 -0.813622 0.836222 -0.792921
1 -0.085844 1.061318 -1.586923
6 -1.739350 -0.243038 -1.393278
1 -2.223094 0.186797 -2.283639
6 -0.819819 -1.405149 -1.817401
1 0.010456 -1.034386 -2.429416
1 -1.357551 -2.137194 -2.429798
6 -0.269083 -2.078801 -0.557814
1 0.389049 -2.908647 -0.853465
7 -1.368525 -2.618632 0.292698
6 -1.099639 -2.281006 1.702749
1 -1.286578 -3.144257 2.354069
1 -1.751265 -1.462253 2.050285
6 0.365520 -1.839017 1.730409
1 1.032218 -2.707919 1.774729
1 0.605313 -1.191818 2.580164
6 1.081831 2.562749 0.313884
8 2.038504 3.317171 0.193690
6 -1.419832 2.203599 -0.412242
1 -1.748801 2.706936 -1.336013
6 -0.358865 3.075491 0.317287
1 -0.686399 3.148598 1.361974
1 -0.326703 4.092721 -0.077415
8 -2.523143 2.141726 0.487902
6 -2.820924 -0.767440 -0.447883
6 -3.716890 0.034899 0.138759
6 -3.713915 1.536318 -0.022135
1 -3.853347 1.827817 -1.076994
1 -4.533524 1.981424 0.549565
1 -4.459750 -0.393056 0.810925
6 -2.721344 -2.250638 -0.154979
1 -3.432759 -2.545642 0.622564
1 -2.973580 -2.843027 -1.044949




