%nprocshared=4

# input

comment

0 1
6 -1.353659 0.781891 0.655688
6 -2.366879 -0.382329 0.674214
6 2.546418 0.751951 0.016548
6 0.058428 -0.561040 -0.959120
6 0.052037 0.222946 0.365198
6 1.152054 1.322312 0.372570
6 0.785639 2.547570 -0.506390
6 -0.636686 3.049789 -0.200687
6 -1.696990 1.945676 -0.289400
6 -3.812196 0.039986 0.957009
6 2.864106 -0.665204 0.527799
6 1.799785 3.691930 -0.354295
6 1.844564 -1.740148 0.084009
6 2.446496 -3.113349 -0.164082
8 1.212880 -1.324189 -1.142757
8 -1.071526 -1.429414 -1.157085
1 -1.314797 1.191192 1.675671
1 -2.038309 -1.044985 1.486990
1 2.660592 0.749125 -1.074229
1 3.314878 1.429496 0.404474
1 0.031931 0.147740 -1.791636
1 1.177631 1.662399 1.418480
1 0.807157 2.226527 -1.559900
1 -0.888606 3.867507 -0.887798
1 -0.653168 3.480887 0.811807
1 -2.677948 2.353215 -0.022540
1 -1.787321 1.590369 -1.326351
1 -4.444978 -0.841668 1.078620
1 -4.232480 0.630819 0.137304
1 -3.861538 0.636382 1.875313
1 2.930806 -0.694490 1.620047
1 3.849142 -0.947162 0.137652
1 1.489444 4.560141 -0.947047
1 2.801584 3.406406 -0.689116
1 1.872650 4.013600 0.692713
1 3.090265 -3.065688 -1.046752
1 3.038640 -3.431939 0.698552
1 1.649899 -3.838493 -0.348529
6 -2.290901 -1.264132 -0.566041
8 -3.228238 -1.885001 -1.005202
8 0.350471 -0.644359 1.495048
8 0.840317 -1.948095 1.057264




