%nprocshared=4

# input

comment

0 1
1 2.734233 -2.893875 -0.395055
6 2.969933 -1.837315 -0.312172
6 3.620166 0.898702 -0.057972
6 1.998104 -0.903447 0.024695
6 4.276765 -1.395268 -0.526877
6 4.599925 -0.037162 -0.398933
6 2.327116 0.451886 0.152140
1 5.053885 -2.109891 -0.788188
1 5.622441 0.293168 -0.566089
1 3.884489 1.946771 0.034307
6 0.544697 -1.140656 0.348498
6 0.002114 0.323444 0.401754
1 -0.566709 0.490467 1.326129
7 1.179186 1.204713 0.445988
6 -0.802754 0.819867 -0.807550
1 -0.093881 1.055254 -1.619518
6 -1.721726 -0.263067 -1.389466
1 -2.218194 0.123343 -2.288888
6 -0.808203 -1.423906 -1.813287
1 0.016587 -1.066690 -2.442626
1 -1.360874 -2.146922 -2.427378
6 -0.262948 -2.094620 -0.553223
1 0.357566 -2.946416 -0.857616
7 -1.339450 -2.639980 0.315916
6 -1.032627 -2.303450 1.713788
1 -1.166920 -3.175208 2.362019
1 -1.672751 -1.501446 2.101075
6 0.411074 -1.833476 1.710443
1 1.080452 -2.701132 1.782297
1 0.632377 -1.175903 2.558395
6 1.053970 2.579501 0.362277
8 1.988047 3.378230 0.326696
6 -1.410207 2.185394 -0.415887
1 -1.737216 2.710543 -1.322767
6 -0.385729 3.082138 0.325401
1 -0.689762 3.260443 1.364538
1 -0.374012 4.061854 -0.169060
8 -2.534624 2.086779 0.469483
6 -2.772493 -0.771163 -0.421809
6 -3.675582 0.053171 0.137083
6 -3.704630 1.523270 -0.107156
1 -3.813354 1.777161 -1.167551
1 -4.565490 1.951244 0.417184
1 -4.402622 -0.332566 0.847121
6 -2.695680 -2.239947 -0.074353
1 -3.410259 -2.509940 0.713812
1 -3.003241 -2.826841 -0.949260




