%nprocshared=4

# input

comment

0 1
6 4.001215 -1.153997 -0.863840
1 4.580324 -1.937031 -1.337791
6 2.988409 -1.411176 -0.025823
1 2.756681 -2.452750 0.190426
6 2.140306 -0.360843 0.690577
6 4.394879 0.233655 -1.169007
6 3.618203 1.312756 -0.525678
6 2.598568 1.049472 0.310796
6 1.779331 2.163713 0.897896
1 2.175767 3.144516 0.607900
1 1.804646 2.135760 1.992076
6 0.607873 -0.533419 0.433401
6 -0.311125 0.679448 0.712267
1 -0.568812 0.674511 1.778747
6 0.356255 2.033478 0.386260
1 0.367563 2.191775 -0.701264
1 -0.244908 2.847449 0.809572
1 3.917180 2.320151 -0.792195
6 2.430537 -0.560052 2.204507
1 2.285467 -1.603446 2.511714
1 1.764221 0.041649 2.832774
1 3.463770 -0.290672 2.457428
8 0.147106 -1.744144 1.094351
8 5.321729 0.481877 -1.928994
6 -1.590687 0.577274 -0.148255
1 -1.270343 0.704670 -1.197751
6 -2.314140 -0.779782 -0.053521
6 -1.441436 -1.825608 -0.748824
1 -1.474077 -1.680893 -1.836423
1 -1.827311 -2.836120 -0.568343
6 -0.001662 -1.751520 -0.313868
1 0.632149 -2.403928 -0.898208
6 -2.699440 1.605328 0.077662
1 -2.405063 2.612570 -0.234018
1 -2.987440 1.653398 1.134019
6 -3.839572 1.075164 -0.811023
1 -3.708561 1.437184 -1.837448
6 -3.582181 -0.427429 -0.815578
8 -4.315528 -1.248084 -1.352140
6 -2.765631 -1.202434 1.355129
1 -3.209172 -2.204886 1.328544
1 -3.537196 -0.536829 1.758309
1 -1.953782 -1.220558 2.084534
6 -5.214568 1.430656 -0.283004
1 -5.995263 1.034147 -0.940768
1 -5.339263 2.516298 -0.221159
1 -5.383821 1.007738 0.713152




