%nprocshared=4

# input

comment

0 1
6 -1.409397 0.623721 0.697188
6 -2.314903 -0.621659 0.688696
6 2.466224 1.003146 0.009114
6 0.070593 -0.627352 -0.921156
6 0.036460 0.192862 0.396000
6 1.015462 1.401342 0.378379
6 0.509900 2.558607 -0.526071
6 -0.936624 2.938696 -0.185037
6 -1.881107 1.743282 -0.239988
6 -3.781284 -0.285582 0.972011
6 2.938642 -0.379346 0.484692
6 1.393072 3.808004 -0.424362
6 2.009486 -1.534687 0.054489
6 2.814766 -2.809164 -0.180332
8 1.360637 -1.199911 -1.173260
8 -0.919285 -1.665565 -1.007990
1 -1.439748 1.023722 1.722140
1 -1.993665 -1.295142 1.495327
1 2.588790 1.047291 -1.081484
1 3.157502 1.753010 0.414188
1 -0.123381 0.024822 -1.778761
1 1.064519 1.783848 1.409787
1 0.533508 2.228420 -1.572752
1 -1.294269 3.705503 -0.883149
1 -0.977217 3.383886 0.817662
1 -2.878907 2.089087 0.052179
1 -1.963937 1.384362 -1.272231
1 -4.358195 -1.201769 1.142565
1 -4.251883 0.235468 0.131666
1 -3.875909 0.337108 1.867519
1 3.069522 -0.377147 1.573680
1 3.936054 -0.527618 0.050654
1 0.976978 4.627058 -1.021165
1 2.402276 3.617060 -0.801408
1 1.474172 4.152899 0.611936
1 3.543543 -2.680455 -0.987644
1 3.336251 -3.123481 0.729967
1 2.151493 -3.631240 -0.474336
6 -2.181631 -1.432294 -0.587813
8 -3.137881 -1.948712 -1.155253
8 0.455159 -0.595059 1.538681
8 1.044439 -1.845022 1.067672




