%nprocshared=4

# input

comment

   0   1
 1  -1.165857713  -0.884939313   0.468395715
 6  -0.533118745  -0.000000000   0.595080331
 1  -1.165857713   0.884939313   0.468395715
 1  -0.153748806  -0.000000000   1.621684218
 6   0.615434923   0.000000000  -0.386499448
 1   1.236313730  -0.893071896  -0.280348935
 1   1.236313730   0.893071896  -0.280348935
35  -0.069479405  -0.000000000  -2.206358662



