%nprocshared=4

# input

comment

0 1
6 0.602751 -1.089566 0.000000
1 1.223741 -1.188180 0.890439
1 1.223741 -1.188180 -0.890439
6 -0.576192 -2.044623 0.000000
1 -1.200177 -1.901863 0.886926
1 -0.206481 -3.078525 0.000000
1 -1.200177 -1.901863 -0.886926
35 0.000000 0.801821 0.000000




