%nprocshared=4

# input

comment

0 1
 1   0.463895422   0.834745178   1.539278663
 6  -0.110364182  -0.062446960   1.290177084
 1   0.526228024  -0.937270441   1.456729512
 1  -0.953421343  -0.120811795   1.986178914
 6  -0.619775247  -0.024486749  -0.143587305
 1  -1.248752163   0.862390095  -0.284727190
 1  -1.264138210  -0.897067968  -0.304279937
 6   0.494125152  -0.050490241  -1.183686241
 1   0.068384864  -0.121808018  -2.189026496
 1   1.157234094  -0.907509269  -1.031316218
17   1.486583590   1.424756169  -1.135740786



