%nprocshared=4

# input

comment

0 1
6 -1.139972 0.678830 1.241922
1 -1.159526 1.339577 2.094914
6 -1.096654 -0.661878 1.264805
1 -1.077857 -1.291113 2.141514
6 -1.061473 1.106381 -0.207889
1 -1.457102 2.101907 -0.413532
6 -0.989459 -1.132514 -0.167806
1 -1.321650 -2.157241 -0.338829
6 -1.867099 -0.050921 -0.819150
1 -2.913967 -0.078706 -0.489648
1 -1.839592 -0.069340 -1.914802
6 0.343723 0.801015 -0.793221
1 0.417426 1.163350 -1.825867
6 0.393611 -0.762834 -0.768902
1 0.457173 -1.149933 -1.794740
6 1.644460 -1.154375 0.023275
1 2.344015 -1.707421 -0.612730
1 1.421046 -1.772499 0.897556
6 1.548199 1.211244 -0.011294
1 1.813144 2.242389 0.177819
6 2.251048 0.156707 0.417651
1 3.158588 0.229100 1.001996




