%nprocshared=4

# input

comment

0 1
1 -2.168425 3.072547 0.009161
6 -1.511468 2.203624 0.007384
6 0.162249 -0.002800 0.002877
6 -2.064714 0.896887 0.003378
6 -0.128099 2.408512 0.009134
6 0.676023 1.287067 0.006803
6 -1.210796 -0.228202 0.001080
1 0.300451 3.405551 0.012196
6 -3.448236 0.679755 0.001595
1 -4.141400 1.516053 0.003252
6 -3.939092 -0.625047 -0.002352
6 -5.418912 -0.869589 -0.004292
1 -5.873915 -0.426823 -0.895734
1 -5.875459 -0.431640 0.888738
1 -5.636824 -1.942448 -0.007376
7 -3.132807 -1.711336 -0.004586
6 -1.797685 -1.494467 -0.002845
1 -1.192907 -2.397838 -0.004760
6 2.128676 1.182924 0.007779
8 2.907527 2.110065 -0.032261
6 2.369505 -0.293803 0.004001
6 3.550257 -0.940345 0.003278
6 3.625940 -2.446132 -0.000721
1 2.642625 -2.926057 -0.002867
1 4.161118 -2.798913 0.887230
1 4.162656 -2.794117 -0.889636
6 4.899618 -0.273999 0.006244
1 5.465077 -0.579432 0.893240
1 4.860310 0.815275 0.009150
1 5.466613 -0.574642 -0.881408
8 1.142492 -0.968124 0.001119




