%nprocshared=4

# input

comment

   0   1
 1   1.048506544   0.000000000   1.324547531
 6  -0.039559928   0.000000000   1.204422346
 1  -0.438375578  -0.887161931   1.705708669
 1  -0.438375578   0.887161931   1.705708669
 6  -0.448207448   0.000000000  -0.231022145
 1  -1.516926746   0.000000000  -0.432414045
 6   0.417996905   0.000000000  -1.247769258
 1   1.495510276   0.000000000  -1.142649871
17  -0.080568448   0.000000000  -2.886531895



